/*********************************************
 * OPL 22.1.1.0 Data
 * Author: ra212336
 * Creation Date: 17 oct. 2023 at 14:46:29
 *********************************************/
nbObjets = 4;
poidsObjets = [5, 7, 4, 3];
valeursObjets = [16, 22, 12, 8];
pMax = 14;